135112.08
208 103 206 205 204 203 202 201 77 76 200 199 197 198 98 99 100 101 102 224 0 1 2 3 4 5 107 105 104 106 6 7 8 9 10 11 12 112 111 110 109 108 211 210 212 87 86 85 84 83 187 61 62 186 185 184 183 182 181 57 56 55 54 53 156 157 158 159 160 161 59 60 58 162 37 36 35 34 33 137 136 135 134 133 132 131 129 130 28 29 30 31 32 155 154 153 152 151 49 48 149 148 150 27 26 25 24 23 127 128 126 125 124 123 122 121 120 18 19 119 118 117 116 115 114 113 13 14 15 16 17 138 38 40 39 139 140 141 142 143 22 20 21 144 145 147 146 43 44 45 46 47 168 167 166 165 164 42 41 163 63 64 65 66 67 189 190 188 88 89 90 91 92 213 214 215 216 217 218 219 220 222 223 221 97 96 95 94 93 193 191 192 194 195 196 72 71 70 69 68 169 170 171 172 173 174 51 50 52 175 73 75 74 176 177 178 179 180 78 79 80 81 82 207 209